c preprocessed version of BN_83, 29 vertices, 287 edges
p td 29 287
1 0
5 0
6 0
8 0
10 0
12 0
1 2
4 1
3 1
5 1
8 1
3 2
5 2
9 2
8 2
13 2
17 2
4 3
3 7
5 3
6 3
8 3
12 3
15 3
5 4
6 4
8 4
6 5
9 5
8 5
10 5
12 5
11 5
13 5
14 5
17 5
6 7
6 9
6 8
12 6
11 6
13 6
14 6
17 6
8 7
12 7
9 8
10 8
12 8
11 8
13 8
14 8
15 8
17 8
10 9
12 9
11 9
13 9
14 9
17 9
10 11
10 12
10 13
10 14
15 10
16 10
17 10
12 11
11 13
11 14
15 11
16 11
17 11
12 13
12 14
15 12
16 12
17 12
13 14
15 13
16 13
17 13
15 14
16 14
17 14
15 16
15 17
16 17
18 28
18 15
18 4
18 5
18 7
18 20
18 19
18 21
18 23
18 27
18 22
18 10
18 11
18 16
18 24
18 25
18 17
18 26
18 14
19 28
19 15
19 4
19 5
19 6
19 7
19 8
19 20
19 21
19 23
19 27
19 22
19 10
19 11
19 16
19 24
19 25
19 17
19 26
19 14
20 28
20 15
20 0
20 3
20 5
20 6
20 7
20 8
20 9
20 21
20 22
20 23
20 27
20 10
20 12
20 11
20 13
20 16
20 24
20 25
20 17
20 26
20 14
21 28
21 15
21 22
21 16
21 23
21 17
21 27
21 3
21 4
21 5
21 6
21 7
21 8
21 9
21 10
21 12
21 11
21 13
21 24
21 25
21 26
21 14
22 28
22 15
22 0
22 1
22 2
22 3
22 4
22 5
22 6
22 7
22 8
22 9
22 23
22 27
22 10
22 12
22 11
22 13
22 16
22 24
22 25
22 17
22 26
22 14
23 28
23 15
23 16
23 0
23 1
23 3
23 4
23 5
23 6
23 7
23 8
23 9
23 27
23 10
23 12
23 11
23 13
23 24
23 25
23 17
23 26
23 14
24 28
24 1
24 10
24 12
24 11
24 13
24 14
24 26
24 25
24 15
24 16
24 17
24 27
25 28
25 0
25 1
25 5
25 6
25 8
25 10
25 12
25 11
25 13
25 14
25 26
25 15
25 16
25 17
25 27
26 28
26 1
26 3
26 4
26 5
26 6
26 8
26 10
26 12
26 11
26 13
26 14
26 15
26 16
26 17
26 27
27 28
27 15
27 16
27 17
27 4
27 5
27 6
27 7
27 8
27 9
27 10
27 12
27 11
27 13
27 14
28 5
28 6
28 8
28 12
28 11
28 14
28 15
28 16
28 17
